Selected objective sense:  MINIMIZE
Selected objective  name:  OBJ
Selected RHS        name:  RHS1
Selected bound      name:  BND1
CPXPARAM_Preprocessing_Presolve                  0
CPXPARAM_LPMethod                                4
CPXPARAM_Threads                                 1
CPXPARAM_SolutionType                            2
CPXPARAM_TimeLimit                               3600
Tried aggregator 0 times.
Reduced presolve eliminated 119 rows and 119 columns.
Reduced LP has 953 rows, 6169 columns, and 261633 nonzeros.
Presolve time = 0.03 sec. (28.97 ticks)
Parallel mode: none, using 1 thread for barrier
Number of nonzeros in lower triangle of A*A' = 42182
Using Approximate Minimum Degree ordering
Total time for automatic ordering = 0.01 sec. (23.18 ticks)
Summary statistics for Cholesky factor:
  Rows in Factor            = 953
  Integer space required    = 39703
  Total non-zeros in factor = 44263
  Total FP ops to factor    = 2156781
 Itn      Primal Obj        Dual Obj  Prim Inf Upper Inf  Dual Inf Inf Ratio
   0   1.6273298e+08  -6.3317696e+05  4.08e+07  0.00e+00  8.21e+04  1.00e+00
   1   2.7105159e+07  -1.8803789e+05  6.82e+06  3.53e-12  1.45e+04  2.05e-03
   2   3.9236075e+06  -7.1424933e+04  9.89e+05  6.24e-12  4.86e+03  4.69e-03
   3   1.5278695e+06  -4.0766557e+04  3.88e+05  2.76e-12  2.04e+03  1.02e-02
   4   1.2431462e+05  -2.1690072e+04  3.49e+04  1.79e-12  5.56e+02  3.63e-02
   5   3.2129680e+03  -6.1165879e+03  1.37e+03  9.26e-13  1.22e+02  1.80e-01
   6   3.0330056e+03   2.4765278e+03  1.58e+00  3.09e-12  7.44e+00  2.95e+00
   7   3.0127344e+03   2.8188746e+03  6.63e-01  1.41e-12  2.56e+00  1.62e+01
   8   3.0002542e+03   2.9372328e+03  4.48e-01  1.09e-12  6.09e-01  1.14e+02
   9   2.9945037e+03   2.9469278e+03  3.41e-01  4.13e-12  4.58e-01  1.50e+02
  10   2.9859080e+03   2.9630468e+03  2.01e-01  3.35e-12  1.81e-01  3.53e+02
  11   2.9824143e+03   2.9666309e+03  1.44e-01  2.63e-12  1.19e-01  5.08e+02
  12   2.9790811e+03   2.9708408e+03  8.74e-02  1.39e-12  5.04e-02  1.06e+03
  13   2.9768198e+03   2.9721209e+03  5.23e-02  4.99e-12  2.56e-02  1.85e+03
  14   2.9758861e+03   2.9728773e+03  3.71e-02  2.32e-12  1.25e-02  3.32e+03
  15   2.9751144e+03   2.9732859e+03  2.46e-02  1.45e-12  5.39e-03  6.52e+03
  16   2.9746655e+03   2.9735285e+03  1.74e-02  1.85e-12  1.17e-03  1.94e+04
  17   2.9743673e+03   2.9735687e+03  1.26e-02  4.22e-12  3.73e-04  2.91e+04
  18   2.9740206e+03   2.9735951e+03  6.87e-03  4.75e-12  7.43e-05  3.91e+04
  19   2.9739323e+03   2.9736029e+03  5.33e-03  2.47e-12  5.54e-05  4.41e+04
  20   2.9738756e+03   2.9736118e+03  4.32e-03  3.11e-12  3.96e-05  5.24e+04
  21   2.9737693e+03   2.9736170e+03  2.39e-03  5.64e-12  3.14e-05  5.98e+04
  22   2.9737459e+03   2.9736240e+03  1.96e-03  1.69e-12  2.19e-05  8.04e+04
  23   2.9737256e+03   2.9736307e+03  1.58e-03  2.25e-12  1.33e-05  1.18e+05
  24   2.9737080e+03   2.9736336e+03  1.26e-03  1.22e-12  8.82e-06  1.56e+05
  25   2.9736835e+03   2.9736372e+03  8.02e-04  2.70e-12  4.06e-06  2.54e+05
  26   2.9736643e+03   2.9736390e+03  4.39e-04  1.68e-12  2.22e-06  3.75e+05
  27   2.9736475e+03   2.9736411e+03  1.03e-04  1.99e-12  8.29e-07  9.48e+05
  28   2.9736455e+03   2.9736418e+03  6.05e-05  1.18e-12  4.42e-07  1.79e+06
  29   2.9736444e+03   2.9736422e+03  3.92e-05  2.53e-12  2.10e-07  3.69e+06
  30   2.9736430e+03   2.9736424e+03  9.67e-06  1.70e-12  5.73e-08  1.24e+07
  31   2.9736426e+03   2.9736425e+03  2.01e-06  5.65e-12  1.32e-08  5.36e+07
  32   2.9736425e+03   2.9736425e+03  1.90e-07  1.30e-12  1.18e-09  6.42e+08
Barrier time = 0.44 sec. (1189.76 ticks)

Total time on 1 threads = 0.44 sec. (1189.76 ticks)
Solve time: 0.435628244
Barrier iterations: 32
